(set-logic ALL)
(declare-fun seed0_T_1 () Int)
(declare-fun seed0_T_2 () Bool)
(declare-fun seed0_T_3 () Bool)
(declare-fun seed0_var_0xINPUT_262485 () String)
(assert (and (or (>= seed0_T_1 (str.len seed0_var_0xINPUT_262485)) (or (< (+ seed0_T_1 199) (* seed0_T_1 seed0_T_1)) (> (+ seed0_T_1 537) (* seed0_T_1 seed0_T_1)))) (or (= seed0_T_2 (= seed0_T_1 0)) (not (str.<= (str.++ seed0_var_0xINPUT_262485 "NFesctU3g2Bdnq") (str.++ seed0_var_0xINPUT_262485 "y9jFUX72vsExOp")))) (or (= seed0_T_3 (not seed0_T_2)) (and (str.contains (str.++ seed0_var_0xINPUT_262485 "MsPG1kg6ZBYp54EoWK0U") (str.++ seed0_var_0xINPUT_262485 "9QMb1gydR0")) (str.contains (str.++ seed0_var_0xINPUT_262485 "0h9Wz8La7sP") (str.++ seed0_var_0xINPUT_262485 "")))) (or seed0_T_3 (str.< (str.++ seed0_var_0xINPUT_262485 "cE1v6UrWzOwXSt8b4KZ") (str.++ seed0_var_0xINPUT_262485 "hdeQRGNumzwI")))))
(check-sat)
(exit)